
===== New CPLEX run =====
Instance: /home/yorig/tuner/mpils-tests/instances/miplib/easy/lotsize.mps
Config: /scratch/yorig/mpils-results-grid-ticks-10000/easy/16proc/seed-9/4_lotsize_seed-9_20260425_202405/expansion/config_param_CPXPARAM_Network_Pricing_2_iter_4.prm
========================

Selected objective sense:  MINIMIZE
Selected objective  name:  R1921
Selected RHS        name:  B
Selected bound      name:  BOUND
Version identifier: 22.1.2.0 | 2024-11-26 | 0edbb82fd
CPXPARAM_Threads                                 8
CPXPARAM_Parallel                                1
CPXPARAM_MIP_Cuts_Cliques                        -1
CPXPARAM_Preprocessing_CoeffReduce               3
CPXPARAM_MIP_Strategy_VariableSelect             1
CPXPARAM_MIP_Cuts_FlowCovers                     1
CPXPARAM_MIP_Cuts_GUBCovers                      2
CPXPARAM_MIP_Limits_GomoryCand                   10
CPXPARAM_MIP_Cuts_MIRCut                         2
CPXPARAM_MIP_Cuts_Disjunctive                    2
CPXPARAM_MIP_Limits_AggForCut                    10
CPXPARAM_Emphasis_MIP                            4
CPXPARAM_Network_Pricing                         2
CPXPARAM_DetTimeLimit                            10000
Tried aggregator 1 time.
MIP Presolve eliminated 595 rows and 0 columns.
MIP Presolve added 1190 rows and 0 columns.
MIP Presolve modified 10 coefficients.
Reduced MIP has 2515 rows, 2985 columns, and 7755 nonzeros.
Reduced MIP has 1195 binaries, 0 generals, 0 SOSs, and 0 indicators.
Presolve time = 0.00 sec. (4.57 ticks)
Probing fixed 0 vars, tightened 5487 bounds.
Probing time = 0.01 sec. (18.38 ticks)
Tried aggregator 2 times.
Detecting symmetries...
MIP Presolve modified 1206 coefficients.
Aggregator did 10 substitutions.
Reduced MIP has 2505 rows, 2975 columns, and 7735 nonzeros.
Reduced MIP has 1195 binaries, 0 generals, 0 SOSs, and 0 indicators.
Presolve time = 0.00 sec. (6.70 ticks)
Probing fixed 0 vars, tightened 2401 bounds.
Probing time = 0.00 sec. (6.41 ticks)
Clique table members: 190.
MIP emphasis: hidden feasible solutions.
MIP search method: dynamic search.
Parallel mode: deterministic, using up to 8 threads.
Root relaxation solution time = 0.01 sec. (9.71 ticks)

        Nodes                                         Cuts/
   Node  Left     Objective  IInf  Best Integer    Best Bound    ItCnt     Gap

      0     0   348385.3466   472                 348385.3466      882         
      0     0   582561.7294   438                   Cuts: 726     1828         
      0     0   816809.1068   691                   Cuts: 726     2692         
*     0+    0                       1.01740e+07   816809.1068            91.97%
*     0+    0                      7973370.0000   816809.1068            89.76%
      0     0   975349.8865   668  7973370.0000     Cuts: 726     3465   87.77%
      0     0  1085503.5598   696  7973370.0000     Cuts: 726     4194   86.39%
      0     0  1199024.4532   697  7973370.0000     Cuts: 726     4990   84.96%
Detecting symmetries...
*     0+    0                      2214406.0000  1199024.4532            45.85%
      0     0  1265555.4608   703  2214406.0000     Cuts: 726     5685   42.85%
*     0+    0                      1941716.0000  1265555.4608            34.82%
      0     0  1303319.1451   722  1941716.0000     Cuts: 726     6322   32.88%
      0     0  1336991.6401   750  1941716.0000     Cuts: 726     6961   31.14%
      0     0  1356767.6161   784  1941716.0000     Cuts: 726     7565   30.13%
      0     0  1373309.1218   775  1941716.0000     Cuts: 726     8249   29.27%
      0     0  1387312.9131   763  1941716.0000     Cuts: 726     8869   28.55%
      0     0  1397242.6711   802  1941716.0000     Cuts: 726     9458   28.04%
      0     0  1404879.1384   803  1941716.0000     Cuts: 726     9969   27.65%
      0     0  1412630.2938   817  1941716.0000     Cuts: 726    10783   27.25%
      0     0  1417609.1540   818  1941716.0000     Cuts: 638    11218   26.99%
      0     0  1420757.2373   820  1941716.0000     Cuts: 514    11567   26.83%
      0     0  1424413.1502   836  1941716.0000     Cuts: 596    11911   26.64%
*     0+    0                      1902004.0000  1424413.1502            25.11%
      0     0  1427024.0539   832  1902004.0000     Cuts: 353    12264   24.97%
      0     0  1428738.9598   843  1902004.0000     Cuts: 370    12544   24.88%
      0     0  1430024.5136   831  1902004.0000     Cuts: 272    12777   24.81%
      0     0  1430956.9065   853  1902004.0000     Cuts: 294    13005   24.77%
      0     0  1431959.1137   857  1902004.0000     Cuts: 213    13221   24.71%
      0     0  1433277.2023   854  1902004.0000     Cuts: 276    13424   24.64%
      0     0  1434330.4849   849  1902004.0000     Cuts: 245    13608   24.59%
      0     0  1434827.3306   845  1902004.0000     Cuts: 233    13781   24.56%
*     0+    0                      1840074.0000  1434827.3306            22.02%
      0     0  1435745.9318   838  1840074.0000     Cuts: 191    13938   21.97%
      0     0  1436380.5638   849  1840074.0000     Cuts: 180    14107   21.94%
      0     0  1436902.3517   848  1840074.0000     Cuts: 164    14290   21.91%
      0     0  1437323.4053   848  1840074.0000     Cuts: 158    14401   21.89%
      0     0  1438009.1793   858  1840074.0000     Cuts: 174    14532   21.85%
      0     0  1438269.7492   859  1840074.0000     Cuts: 231    14630   21.84%
      0     0  1438667.7645   855  1840074.0000     Cuts: 110    14745   21.81%
*     0+    0                      1533677.0000  1438667.7645             6.19%

GUB cover cuts applied:  0
Cover cuts applied:  10
Implied bound cuts applied:  21
Flow cuts applied:  627
Mixed integer rounding cuts applied:  991
Flow path cuts applied:  12
Multi commodity flow cuts applied:  11
Disjunctive cuts applied:  0
Cone linearizations applied:  0

Root node processing (before b&c):
  Real time             =    6.68 sec. (10005.23 ticks)
Parallel b&c, 8 threads:
  Real time             =    0.00 sec. (0.00 ticks)
  Sync time (average)   =    0.00 sec.
  Wait time (average)   =    0.00 sec.
                          ------------
Total (root+branch&cut) =    6.68 sec. (10005.23 ticks)
Gap: 6.19%
Upper bound: 1.53368e+06
Lower bound: 1.43867e+06
End of CPLEX run. Time: 6.68612 seconds
